NAME: Golden_7
TYPE: CVRP
COMMENT: 10181.75
DIMENSION: 361
CAPACITY: 900
DISTANCE: 1300.00000
VEHICLES: 9
EDGE_WEIGHT_TYPE: FUNCTION
EDGE_WEIGHT_FORMAT: EUC_2D
NODE_COORD_TYPE: TWOD_COORDS
NODE_COORD_SECTION
1 30.00000 0.00000
2 29.54420 5.20940
3 28.19080 10.26060
4 25.98080 15.00000
5 22.98130 19.28360
6 19.28360 22.98130
7 15.00000 25.98080
8 10.26060 28.19080
9 5.20940 29.54420
10 0.00000 30.00000
11 -5.20940 29.54420
12 -10.26060 28.19080
13 -15.00000 25.98080
14 -19.28360 22.98130
15 -22.98130 19.28360
16 -25.98080 15.00000
17 -28.19080 10.26060
18 -29.54420 5.20940
19 -30.00000 0.00000
20 -29.54420 -5.20940
21 -28.19080 -10.26060
22 -25.98080 -15.00000
23 -22.98130 -19.28360
24 -19.28360 -22.98130
25 -15.00000 -25.98080
26 -10.26060 -28.19080
27 -5.20940 -29.54420
28 0.00000 -30.00000
29 5.20940 -29.54420
30 10.26060 -28.19080
31 15.00000 -25.98080
32 19.28360 -22.98130
33 22.98130 -19.28360
34 25.98080 -15.00000
35 28.19080 -10.26060
36 29.54420 -5.20940
37 60.00000 0.00000
38 59.08850 10.41890
39 56.38160 20.52120
40 51.96150 30.00000
41 45.96270 38.56730
42 38.56730 45.96270
43 30.00000 51.96150
44 20.52120 56.38160
45 10.41890 59.08850
46 0.00000 60.00000
47 -10.41890 59.08850
48 -20.52120 56.38160
49 -30.00000 51.96150
50 -38.56730 45.96270
51 -45.96270 38.56730
52 -51.96150 30.00000
53 -56.38160 20.52120
54 -59.08850 10.41890
55 -60.00000 0.00000
56 -59.08850 -10.41890
57 -56.38160 -20.52120
58 -51.96150 -30.00000
59 -45.96270 -38.56730
60 -38.56730 -45.96270
61 -30.00000 -51.96150
62 -20.52120 -56.38160
63 -10.41890 -59.08850
64 0.00000 -60.00000
65 10.41890 -59.08850
66 20.52120 -56.38160
67 30.00000 -51.96150
68 38.56730 -45.96270
69 45.96270 -38.56720
70 51.96150 -30.00000
71 56.38160 -20.52120
72 59.08850 -10.41890
73 90.00000 0.00000
74 88.63270 15.62830
75 84.57230 30.78180
76 77.94230 45.00000
77 68.94400 57.85090
78 57.85090 68.94400
79 45.00000 77.94230
80 30.78180 84.57230
81 15.62830 88.63270
82 0.00000 90.00000
83 -15.62830 88.63270
84 -30.78180 84.57230
85 -45.00000 77.94230
86 -57.85090 68.94400
87 -68.94400 57.85090
88 -77.94230 45.00000
89 -84.57230 30.78180
90 -88.63270 15.62830
91 -90.00000 0.00000
92 -88.63270 -15.62830
93 -84.57230 -30.78180
94 -77.94230 -45.00000
95 -68.94400 -57.85090
96 -57.85090 -68.94400
97 -45.00000 -77.94230
98 -30.78180 -84.57230
99 -15.62830 -88.63270
100 0.00000 -90.00000
101 15.62830 -88.63270
102 30.78180 -84.57230
103 45.00000 -77.94230
104 57.85090 -68.94400
105 68.94400 -57.85090
106 77.94230 -45.00000
107 84.57230 -30.78180
108 88.63270 -15.62830
109 120.00000 0.00000
110 118.17690 20.83780
111 112.76310 41.04240
112 103.92300 60.00000
113 91.92530 77.13450
114 77.13450 91.92530
115 60.00000 103.92300
116 41.04240 112.76310
117 20.83780 118.17690
118 0.00000 120.00000
119 -20.83780 118.17690
120 -41.04240 112.76310
121 -60.00000 103.92300
122 -77.13450 91.92530
123 -91.92530 77.13450
124 -103.92300 60.00000
125 -112.76310 41.04240
126 -118.17690 20.83780
127 -120.00000 0.00000
128 -118.17690 -20.83780
129 -112.76310 -41.04240
130 -103.92300 -60.00000
131 -91.92530 -77.13450
132 -77.13450 -91.92530
133 -60.00000 -103.92310
134 -41.04240 -112.76310
135 -20.83780 -118.17690
136 0.00000 -120.00000
137 20.83780 -118.17690
138 41.04240 -112.76310
139 60.00000 -103.92300
140 77.13450 -91.92530
141 91.92530 -77.13450
142 103.92310 -60.00000
143 112.76310 -41.04240
144 118.17690 -20.83780
145 150.00000 0.00000
146 147.72121 26.04720
147 140.95390 51.30300
148 129.90379 75.00000
149 114.90670 96.41810
150 96.41810 114.90670
151 75.00000 129.90379
152 51.30300 140.95390
153 26.04720 147.72121
154 0.00000 150.00000
155 -26.04720 147.72121
156 -51.30300 140.95390
157 -75.00000 129.90379
158 -96.41820 114.90670
159 -114.90670 96.41810
160 -129.90379 75.00000
161 -140.95390 51.30300
162 -147.72121 26.04720
163 -150.00000 0.00000
164 -147.72121 -26.04720
165 -140.95390 -51.30300
166 -129.90379 -75.00000
167 -114.90670 -96.41820
168 -96.41810 -114.90670
169 -75.00000 -129.90379
170 -51.30300 -140.95390
171 -26.04720 -147.72121
172 0.00000 -150.00000
173 26.04720 -147.72121
174 51.30300 -140.95390
175 75.00000 -129.90379
176 96.41820 -114.90670
177 114.90670 -96.41810
178 129.90379 -75.00000
179 140.95390 -51.30300
180 147.72121 -26.04720
181 180.00000 0.00000
182 177.26540 31.25670
183 169.14470 61.56360
184 155.88460 90.00000
185 137.88800 115.70180
186 115.70180 137.88800
187 90.00000 155.88460
188 61.56360 169.14470
189 31.25670 177.26540
190 0.00000 180.00000
191 -31.25670 177.26540
192 -61.56360 169.14470
193 -90.00000 155.88460
194 -115.70180 137.88800
195 -137.88800 115.70180
196 -155.88460 90.00000
197 -169.14470 61.56360
198 -177.26540 31.25670
199 -180.00000 0.00000
200 -177.26540 -31.25670
201 -169.14470 -61.56360
202 -155.88460 -90.00000
203 -137.88800 -115.70180
204 -115.70180 -137.88800
205 -90.00000 -155.88460
206 -61.56360 -169.14470
207 -31.25660 -177.26540
208 0.00000 -180.00000
209 31.25670 -177.26540
210 61.56360 -169.14470
211 90.00000 -155.88460
212 115.70180 -137.88800
213 137.88800 -115.70180
214 155.88460 -90.00000
215 169.14470 -61.56360
216 177.26540 -31.25660
217 210.00000 0.00000
218 206.80960 36.46610
219 197.33540 71.82420
220 181.86530 105.00000
221 160.86929 134.98540
222 134.98540 160.86929
223 105.00000 181.86530
224 71.82420 197.33540
225 36.46610 206.80960
226 0.00000 210.00000
227 -36.46610 206.80960
228 -71.82420 197.33540
229 -105.00000 181.86530
230 -134.98540 160.86929
231 -160.86929 134.98540
232 -181.86530 105.00000
233 -197.33540 71.82420
234 -206.80960 36.46610
235 -210.00000 0.00000
236 -206.80960 -36.46610
237 -197.33540 -71.82420
238 -181.86530 -105.00000
239 -160.86929 -134.98540
240 -134.98540 -160.86940
241 -105.00000 -181.86530
242 -71.82420 -197.33549
243 -36.46610 -206.80960
244 0.00000 -210.00000
245 36.46610 -206.80960
246 71.82430 -197.33540
247 105.00000 -181.86530
248 134.98540 -160.86929
249 160.86940 -134.98540
250 181.86540 -105.00000
251 197.33549 -71.82420
252 206.80960 -36.46610
253 240.00000 0.00000
254 236.35390 41.67560
255 225.52620 82.08480
256 207.84610 120.00000
257 183.85069 154.26900
258 154.26900 183.85069
259 120.00000 207.84610
260 82.08480 225.52620
261 41.67560 236.35390
262 0.00000 240.00000
263 -41.67560 236.35390
264 -82.08480 225.52620
265 -120.00000 207.84610
266 -154.26900 183.85069
267 -183.85069 154.26900
268 -207.84610 120.00000
269 -225.52620 82.08480
270 -236.35390 41.67550
271 -240.00000 0.00000
272 -236.35390 -41.67560
273 -225.52620 -82.08490
274 -207.84610 -120.00000
275 -183.85060 -154.26900
276 -154.26900 -183.85069
277 -120.00000 -207.84610
278 -82.08480 -225.52620
279 -41.67550 -236.35390
280 0.00000 -240.00000
281 41.67560 -236.35390
282 82.08490 -225.52620
283 120.00000 -207.84610
284 154.26910 -183.85060
285 183.85069 -154.26900
286 207.84610 -120.00000
287 225.52620 -82.08480
288 236.35390 -41.67550
289 270.00000 0.00000
290 265.89810 46.88500
291 253.71700 92.34540
292 233.82690 135.00000
293 206.83200 173.55270
294 173.55260 206.83200
295 135.00000 233.82690
296 92.34540 253.71700
297 46.88500 265.89810
298 0.00000 270.00000
299 -46.88500 265.89810
300 -92.34550 253.71700
301 -135.00000 233.82690
302 -173.55270 206.83200
303 -206.83200 173.55260
304 -233.82690 135.00000
305 -253.71700 92.34540
306 -265.89810 46.88500
307 -270.00000 0.00000
308 -265.89810 -46.88500
309 -253.71700 -92.34550
310 -233.82680 -135.00000
311 -206.83200 -173.55270
312 -173.55260 -206.83200
313 -135.00000 -233.82690
314 -92.34540 -253.71700
315 -46.88500 -265.89810
316 0.00000 -270.00000
317 46.88500 -265.89810
318 92.34550 -253.71700
319 135.00000 -233.82680
320 173.55270 -206.83200
321 206.83200 -173.55260
322 233.82690 -135.00000
323 253.71700 -92.34540
324 265.89810 -46.88500
325 300.00000 0.00000
326 295.44229 52.09450
327 281.90781 102.60600
328 259.80759 150.00000
329 229.81329 192.83630
330 192.83630 229.81329
331 150.00000 259.80759
332 102.60600 281.90781
333 52.09440 295.44229
334 0.00000 300.00000
335 -52.09450 295.44229
336 -102.60610 281.90781
337 -150.00000 259.80759
338 -192.83630 229.81329
339 -229.81329 192.83630
340 -259.80759 150.00000
341 -281.90781 102.60600
342 -295.44229 52.09440
343 -300.00000 0.00000
344 -295.44229 -52.09450
345 -281.90781 -102.60610
346 -259.80759 -150.00000
347 -229.81329 -192.83630
348 -192.83630 -229.81340
349 -150.00000 -259.80759
350 -102.60600 -281.90781
351 -52.09440 -295.44229
352 0.00000 -300.00000
353 52.09450 -295.44229
354 102.60610 -281.90781
355 150.00000 -259.80759
356 192.83630 -229.81329
357 229.81340 -192.83620
358 259.80759 -150.00000
359 281.90781 -102.60600
360 295.44229 -52.09440
DEMAND_SECTION
1 10
2 30
3 30
4 10
5 10
6 30
7 30
8 10
9 10
10 30
11 30
12 10
13 10
14 30
15 30
16 10
17 10
18 30
19 30
20 10
21 10
22 30
23 30
24 10
25 10
26 30
27 30
28 10
29 10
30 30
31 30
32 10
33 10
34 30
35 30
36 10
37 10
38 30
39 30
40 10
41 10
42 30
43 30
44 10
45 10
46 30
47 30
48 10
49 10
50 30
51 30
52 10
53 10
54 30
55 30
56 10
57 10
58 30
59 30
60 10
61 10
62 30
63 30
64 10
65 10
66 30
67 30
68 10
69 10
70 30
71 30
72 10
73 10
74 30
75 30
76 10
77 10
78 30
79 30
80 10
81 10
82 30
83 30
84 10
85 10
86 30
87 30
88 10
89 10
90 30
91 30
92 10
93 10
94 30
95 30
96 10
97 10
98 30
99 30
100 10
101 10
102 30
103 30
104 10
105 10
106 30
107 30
108 10
109 10
110 30
111 30
112 10
113 10
114 30
115 30
116 10
117 10
118 30
119 30
120 10
121 10
122 30
123 30
124 10
125 10
126 30
127 30
128 10
129 10
130 30
131 30
132 10
133 10
134 30
135 30
136 10
137 10
138 30
139 30
140 10
141 10
142 30
143 30
144 10
145 10
146 30
147 30
148 10
149 10
150 30
151 30
152 10
153 10
154 30
155 30
156 10
157 10
158 30
159 30
160 10
161 10
162 30
163 30
164 10
165 10
166 30
167 30
168 10
169 10
170 30
171 30
172 10
173 10
174 30
175 30
176 10
177 10
178 30
179 30
180 10
181 10
182 30
183 30
184 10
185 10
186 30
187 30
188 10
189 10
190 30
191 30
192 10
193 10
194 30
195 30
196 10
197 10
198 30
199 30
200 10
201 10
202 30
203 30
204 10
205 10
206 30
207 30
208 10
209 10
210 30
211 30
212 10
213 10
214 30
215 30
216 10
217 10
218 30
219 30
220 10
221 10
222 30
223 30
224 10
225 10
226 30
227 30
228 10
229 10
230 30
231 30
232 10
233 10
234 30
235 30
236 10
237 10
238 30
239 30
240 10
241 10
242 30
243 30
244 10
245 10
246 30
247 30
248 10
249 10
250 30
251 30
252 10
253 10
254 30
255 30
256 10
257 10
258 30
259 30
260 10
261 10
262 30
263 30
264 10
265 10
266 30
267 30
268 10
269 10
270 30
271 30
272 10
273 10
274 30
275 30
276 10
277 10
278 30
279 30
280 10
281 10
282 30
283 30
284 10
285 10
286 30
287 30
288 10
289 10
290 30
291 30
292 10
293 10
294 30
295 30
296 10
297 10
298 30
299 30
300 10
301 10
302 30
303 30
304 10
305 10
306 30
307 30
308 10
309 10
310 30
311 30
312 10
313 10
314 30
315 30
316 10
317 10
318 30
319 30
320 10
321 10
322 30
323 30
324 10
325 10
326 30
327 30
328 10
329 10
330 30
331 30
332 10
333 10
334 30
335 30
336 10
337 10
338 30
339 30
340 10
341 10
342 30
343 30
344 10
345 10
346 30
347 30
348 10
349 10
350 30
351 30
352 10
353 10
354 30
355 30
356 10
357 10
358 30
359 30
360 10
DEPOT_SECTION
0.00000 0.00000
-1
EOF
